; benchmark generated from python API
(set-info :status unknown)
(declare-fun DISJ_W_S2_R_S1 () Bool)
(declare-fun W_S2_V5 () Bool)
(declare-fun R_S2_V4 () Bool)
(declare-fun R_S2_V3 () Bool)
(declare-fun W_S2_V3 () Bool)
(declare-fun DISJ_W_S1_R_S1 () Bool)
(declare-fun W_S1_V4 () Bool)
(declare-fun R_S1_V1 () Bool)
(declare-fun DISJ_W_S1_W_S2 () Bool)
(declare-fun DISJ_W_S1_R_S2 () Bool)
(declare-fun W_S1_V5 () Bool)
(declare-fun R_S1_V4 () Bool)
(declare-fun R_S1_V5 () Bool)
(declare-fun DISJ_W_S2_R_S2 () Bool)
(declare-fun R_E1_V4 () Bool)
(declare-fun R_E1_V5 () Bool)
(declare-fun W_S2_V2 () Bool)
(declare-fun W_S2_V1 () Bool)
(declare-fun R_S2_V5 () Bool)
(declare-fun R_S2_V2 () Bool)
(declare-fun R_S2_V1 () Bool)
(declare-fun R_S1_V2 () Bool)
(declare-fun R_S1_V3 () Bool)
(declare-fun R_E1_V2 () Bool)
(declare-fun DISJ_W_S2_R_E1 () Bool)
(declare-fun R_E1_V3 () Bool)
(declare-fun W_S2_V4 () Bool)
(declare-fun W_S1_V3 () Bool)
(declare-fun W_S1_V2 () Bool)
(declare-fun W_S1_V1 () Bool)
(declare-fun R_E1_V1 () Bool)
(declare-fun DISJ_W_S1_R_E1 () Bool)
(assert
 (let (($x4945 (not W_S2_V5)))
 (let (($x367 (not R_S2_V4)))
 (let (($x2313 (not R_S2_V3)))
 (let (($x338 (and $x2313 $x367 $x4945 DISJ_W_S2_R_S1)))
 (let (($x4337 (not $x338)))
 (let (($x3516 (not W_S2_V3)))
 (let (($x3179 (and $x367 $x4945 $x3516 DISJ_W_S2_R_S1)))
 (let (($x2989 (not $x3179)))
 (let (($x5370 (not W_S1_V4)))
 (let (($x1786 (not R_S1_V1)))
 (let (($x4662 (not (and $x1786 $x2313 $x5370 $x4945 DISJ_W_S2_R_S1 DISJ_W_S1_R_S1))))
 (let (($x1113 (not (and $x1786 DISJ_W_S2_R_S1 DISJ_W_S1_W_S2 DISJ_W_S1_R_S1))))
 (let (($x2104 (and DISJ_W_S1_R_S2 DISJ_W_S2_R_S1)))
 (let (($x2454 (not $x2104)))
 (let (($x2264 (not W_S1_V5)))
 (let (($x34 (not R_S1_V4)))
 (let (($x5763 (not R_S1_V5)))
 (let (($x2591 (not (and $x5763 $x34 $x2264 $x5370 DISJ_W_S1_R_S2))))
 (let (($x5088 (not (and $x34 $x2264 $x5370 $x4945 DISJ_W_S1_R_S2))))
 (let (($x5874 (and DISJ_W_S2_R_S1 DISJ_W_S2_R_S2)))
 (let (($x3448 (not $x5874)))
 (let (($x1041 (not (and W_S1_V4 R_E1_V4))))
 (let (($x3234 (not (and W_S1_V5 R_E1_V5))))
 (let (($x5735 (forall ((V3_0 Int) )(forall ((V2_0 Int) )(forall ((V5_0 Int) )(forall ((V4_0 Int) )(forall ((MW_S1_V1 Bool) )(forall ((MW_S1_V3 Bool) )(forall ((MW_S1_V2 Bool) )(forall ((MW_S1_V5 Bool) )(forall ((MW_S1_V4 Bool) )(forall ((MW_S2_V1 Bool) )(forall ((MW_S2_V3 Bool) )(forall ((MW_S2_V2 Bool) )(forall ((MW_S2_V5 Bool) )(forall ((MW_S2_V4 Bool) )(forall ((S1_V1_!6442 Int) )(forall ((S1_V1_!6447 Int) )(forall ((S1_V1_!6464 Int) )(forall ((S1_V1_!6474 Int) )(forall ((S2_V5_!6456 Int) )(forall ((S2_V5_!6461 Int) )(forall ((S2_V5_!6472 Int) )(forall ((S2_V5_!6482 Int) )(forall ((S1_V3_!6443 Int) )(forall ((S1_V3_!6448 Int) )(forall ((S1_V3_!6465 Int) )(forall ((S1_V3_!6475 Int) )(forall ((S1_V2_!6444 Int) )(forall ((S1_V2_!6449 Int) )(forall ((S1_V2_!6466 Int) )(forall ((S1_V2_!6476 Int) )(forall ((E1_!6441 Int) )(forall ((E1_!6452 Int) )(forall ((E1_!6463 Int) )(forall ((S2_V4_!6457 Int) )(forall ((S2_V4_!6462 Int) )(forall ((S2_V4_!6473 Int) )(forall ((S2_V4_!6483 Int) )(forall ((S1_V5_!6445 Int) )(forall ((S1_V5_!6450 Int) )(forall ((S1_V5_!6467 Int) )(forall ((S1_V5_!6477 Int) )(forall ((S2_V1_!6453 Int) )(forall ((S2_V1_!6458 Int) )(forall ((S2_V1_!6469 Int) )(forall ((S2_V1_!6479 Int) )(forall ((S1_V4_!6446 Int) )(forall ((S1_V4_!6451 Int) )(forall ((S1_V4_!6468 Int) )(forall ((S1_V4_!6478 Int) )(forall ((S2_V2_!6455 Int) )(forall ((S2_V2_!6460 Int) )(forall ((S2_V2_!6471 Int) )(forall ((S2_V2_!6481 Int) )(forall ((S2_V3_!6454 Int) )(forall ((S2_V3_!6459 Int) )(forall ((S2_V3_!6470 Int) )(forall ((S2_V3_!6480 Int) )(let (($x4693 (= (ite MW_S2_V4 S2_V4_!6462 (ite MW_S1_V4 S1_V4_!6451 V4_0)) (ite MW_S2_V4 S2_V4_!6483 (ite MW_S1_V4 S1_V4_!6478 (ite MW_S2_V4 S2_V4_!6473 (ite MW_S1_V4 S1_V4_!6468 V4_0)))))))
 (let (($x2303 (= (ite MW_S2_V5 S2_V5_!6461 (ite MW_S1_V5 S1_V5_!6450 V5_0)) (ite MW_S2_V5 S2_V5_!6482 (ite MW_S1_V5 S1_V5_!6477 (ite MW_S2_V5 S2_V5_!6472 (ite MW_S1_V5 S1_V5_!6467 V5_0)))))))
 (let ((?x810 (ite MW_S1_V2 S1_V2_!6466 V2_0)))
 (let ((?x2422 (ite MW_S2_V2 S2_V2_!6471 ?x810)))
 (let ((?x1802 (ite MW_S1_V2 S1_V2_!6476 ?x2422)))
 (let ((?x1298 (ite MW_S2_V2 S2_V2_!6481 ?x1802)))
 (let ((?x671 (ite MW_S1_V2 S1_V2_!6449 V2_0)))
 (let ((?x2444 (ite MW_S2_V2 S2_V2_!6460 ?x671)))
 (let (($x168 (= (ite MW_S2_V3 S2_V3_!6459 (ite MW_S1_V3 S1_V3_!6448 V3_0)) (ite MW_S2_V3 S2_V3_!6480 (ite MW_S1_V3 S1_V3_!6475 (ite MW_S2_V3 S2_V3_!6470 (ite MW_S1_V3 S1_V3_!6465 V3_0)))))))
 (let ((?x1443 (ite MW_S1_V1 S1_V1_!6464 E1_!6463)))
 (let ((?x334 (ite MW_S2_V1 S2_V1_!6469 ?x1443)))
 (let ((?x3221 (+ 1 ?x334)))
 (let ((?x2959 (ite MW_S1_V1 S1_V1_!6474 ?x3221)))
 (let ((?x1491 (ite MW_S2_V1 S2_V1_!6479 ?x2959)))
 (let ((?x2414 (ite MW_S2_V1 S2_V1_!6453 E1_!6452)))
 (let ((?x455 (+ 1 ?x2414)))
 (let ((?x5414 (ite MW_S2_V1 S2_V1_!6458 ?x455)))
 (let (($x3006 (>= (ite MW_S1_V1 S1_V1_!6447 (+ 1 (ite MW_S1_V1 S1_V1_!6442 E1_!6441))) (+ (- 1) ?x671))))
 (let (($x2589 (and (not (<= V2_0 E1_!6441)) (not (<= (ite MW_S1_V2 S1_V2_!6444 V2_0) (+ 1 (ite MW_S1_V1 S1_V1_!6442 E1_!6441)))) $x3006 (not (<= ?x671 E1_!6452)) (not (<= (ite MW_S2_V2 S2_V2_!6455 ?x671) ?x455)) (>= ?x5414 (+ (- 1) ?x2444)) (not (<= V2_0 E1_!6463)) (not (<= ?x2422 ?x3221)) (>= ?x1491 (+ (- 1) ?x1298)))))
 (let (($x722 (= S2_V3_!6470 S2_V3_!6480)))
 (let ((?x1911 (ite MW_S1_V4 S1_V4_!6468 V4_0)))
 (let ((?x33 (ite MW_S2_V4 S2_V4_!6473 ?x1911)))
 (let ((?x2397 (ite MW_S1_V4 S1_V4_!6478 ?x33)))
 (let (($x367 (not R_S2_V4)))
 (let ((?x2785 (ite MW_S1_V5 S1_V5_!6467 V5_0)))
 (let ((?x2973 (ite MW_S2_V5 S2_V5_!6472 ?x2785)))
 (let ((?x2429 (ite MW_S1_V5 S1_V5_!6477 ?x2973)))
 (let (($x2530 (not R_S2_V5)))
 (let ((?x3207 (ite MW_S1_V3 S1_V3_!6465 V3_0)))
 (let ((?x1403 (ite MW_S2_V3 S2_V3_!6470 ?x3207)))
 (let ((?x3655 (ite MW_S1_V3 S1_V3_!6475 ?x1403)))
 (let (($x2313 (not R_S2_V3)))
 (let (($x458 (and (or (not R_S2_V1) (= ?x1443 ?x2959)) (or $x2313 (= ?x3207 ?x3655)) (or (not R_S2_V2) (= ?x810 ?x1802)) (or $x2530 (= ?x2785 ?x2429)) (or $x367 (= ?x1911 ?x2397)))))
 (let (($x6061 (not $x458)))
 (let (($x3646 (= S2_V3_!6470 S2_V3_!6454)))
 (let (($x1552 (and (or (not R_S2_V1) (= ?x1443 E1_!6452)) (or $x2313 (= ?x3207 (ite MW_S1_V3 S1_V3_!6448 V3_0))) (or (not R_S2_V2) (= ?x810 ?x671)) (or $x2530 (= ?x2785 (ite MW_S1_V5 S1_V5_!6450 V5_0))) (or $x367 (= ?x1911 (ite MW_S1_V4 S1_V4_!6451 V4_0))))))
 (let (($x2373 (not $x1552)))
 (let (($x3359 (= S2_V3_!6459 S2_V3_!6480)))
 (let (($x5850 (and (or (not R_S2_V1) (= ?x2414 (+ (- 1) ?x2959))) (or $x2313 (= (ite MW_S2_V3 S2_V3_!6454 (ite MW_S1_V3 S1_V3_!6448 V3_0)) ?x3655)) (or (not R_S2_V2) (= (ite MW_S2_V2 S2_V2_!6455 ?x671) ?x1802)) (or $x2530 (= (ite MW_S2_V5 S2_V5_!6456 (ite MW_S1_V5 S1_V5_!6450 V5_0)) ?x2429)) (or $x367 (= (ite MW_S2_V4 S2_V4_!6457 (ite MW_S1_V4 S1_V4_!6451 V4_0)) ?x2397)))))
 (let (($x254 (not $x5850)))
 (let (($x3640 (= S2_V3_!6459 S2_V3_!6470)))
 (let (($x121 (and (or (not R_S2_V1) (= ?x2414 (+ (- 1) ?x1443))) (or $x2313 (= (ite MW_S2_V3 S2_V3_!6454 (ite MW_S1_V3 S1_V3_!6448 V3_0)) ?x3207)) (or (not R_S2_V2) (= (ite MW_S2_V2 S2_V2_!6455 ?x671) ?x810)) (or $x2530 (= (ite MW_S2_V5 S2_V5_!6456 (ite MW_S1_V5 S1_V5_!6450 V5_0)) ?x2785)) (or $x367 (= (ite MW_S2_V4 S2_V4_!6457 (ite MW_S1_V4 S1_V4_!6451 V4_0)) ?x1911)))))
 (let (($x3453 (not $x121)))
 (let (($x5742 (= S2_V3_!6459 S2_V3_!6454)))
 (let (($x1536 (or $x367 (= (ite MW_S2_V4 S2_V4_!6457 (ite MW_S1_V4 S1_V4_!6451 V4_0)) (ite MW_S1_V4 S1_V4_!6451 V4_0)))))
 (let (($x2645 (or $x2530 (= (ite MW_S2_V5 S2_V5_!6456 (ite MW_S1_V5 S1_V5_!6450 V5_0)) (ite MW_S1_V5 S1_V5_!6450 V5_0)))))
 (let (($x2039 (or $x2313 (= (ite MW_S2_V3 S2_V3_!6454 (ite MW_S1_V3 S1_V3_!6448 V3_0)) (ite MW_S1_V3 S1_V3_!6448 V3_0)))))
 (let (($x4320 (and (or (not R_S2_V1) (= ?x2414 (+ (- 1) E1_!6452))) $x2039 (or (not R_S2_V2) (= (ite MW_S2_V2 S2_V2_!6455 ?x671) ?x671)) $x2645 $x1536)))
 (let (($x4925 (not $x4320)))
 (let (($x807 (= S2_V3_!6454 S2_V3_!6480)))
 (let (($x3631 (and (or (not R_S2_V1) (= E1_!6452 ?x2959)) (or $x2313 (= (ite MW_S1_V3 S1_V3_!6448 V3_0) ?x3655)) (or (not R_S2_V2) (= ?x671 ?x1802)) (or $x2530 (= (ite MW_S1_V5 S1_V5_!6450 V5_0) ?x2429)) (or $x367 (= (ite MW_S1_V4 S1_V4_!6451 V4_0) ?x2397)))))
 (let (($x3787 (not $x3631)))
 (let (($x4058 (= S2_V2_!6481 S2_V2_!6460)))
 (let (($x1438 (and (or (not R_S2_V1) (= ?x2959 ?x455)) (or $x2313 (= ?x3655 (ite MW_S2_V3 S2_V3_!6454 (ite MW_S1_V3 S1_V3_!6448 V3_0)))) (or (not R_S2_V2) (= ?x1802 (ite MW_S2_V2 S2_V2_!6455 ?x671))) (or $x2530 (= ?x2429 (ite MW_S2_V5 S2_V5_!6456 (ite MW_S1_V5 S1_V5_!6450 V5_0)))) (or $x367 (= ?x2397 (ite MW_S2_V4 S2_V4_!6457 (ite MW_S1_V4 S1_V4_!6451 V4_0)))))))
 (let (($x4661 (= S2_V2_!6481 S2_V2_!6455)))
 (let (($x1260 (and (or (not R_S2_V1) (= ?x2959 E1_!6452)) (or $x2313 (= ?x3655 (ite MW_S1_V3 S1_V3_!6448 V3_0))) (or (not R_S2_V2) (= ?x1802 ?x671)) (or $x2530 (= ?x2429 (ite MW_S1_V5 S1_V5_!6450 V5_0))) (or $x367 (= ?x2397 (ite MW_S1_V4 S1_V4_!6451 V4_0))))))
 (let (($x1003 (not $x1260)))
 (let (($x2750 (= S2_V2_!6471 S2_V2_!6460)))
 (let (($x301 (and (or (not R_S2_V1) (= ?x1443 ?x455)) (or $x2313 (= ?x3207 (ite MW_S2_V3 S2_V3_!6454 (ite MW_S1_V3 S1_V3_!6448 V3_0)))) (or (not R_S2_V2) (= ?x810 (ite MW_S2_V2 S2_V2_!6455 ?x671))) (or $x2530 (= ?x2785 (ite MW_S2_V5 S2_V5_!6456 (ite MW_S1_V5 S1_V5_!6450 V5_0)))) (or $x367 (= ?x1911 (ite MW_S2_V4 S2_V4_!6457 (ite MW_S1_V4 S1_V4_!6451 V4_0)))))))
 (let (($x2937 (and (or (not R_S1_V1) (= ?x334 (ite MW_S1_V1 S1_V1_!6442 E1_!6441))) (or (not R_S1_V3) (= ?x1403 (ite MW_S1_V3 S1_V3_!6443 V3_0))) (or (not R_S1_V2) (= ?x2422 (ite MW_S1_V2 S1_V2_!6444 V2_0))) (or (not R_S1_V5) (= ?x2973 (ite MW_S1_V5 S1_V5_!6445 V5_0))) (or (not R_S1_V4) (= ?x33 (ite MW_S1_V4 S1_V4_!6446 V4_0))))))
 (let (($x942 (not $x2937)))
 (let (($x34 (not R_S1_V4)))
 (let (($x2366 (or $x34 (= V4_0 ?x33))))
 (let (($x5763 (not R_S1_V5)))
 (let (($x200 (or $x5763 (= V5_0 ?x2973))))
 (let (($x1286 (not R_S1_V2)))
 (let (($x1189 (or $x1286 (= V2_0 ?x2422))))
 (let (($x5172 (not R_S1_V3)))
 (let (($x1827 (or $x5172 (= V3_0 ?x1403))))
 (let (($x1304 (not (and (or (not R_S1_V1) (= E1_!6463 ?x3221)) $x1827 $x1189 $x200 $x2366))))
 (let (($x3582 (or $x34 (= V4_0 (ite MW_S1_V4 S1_V4_!6446 V4_0)))))
 (let (($x1300 (or $x5763 (= V5_0 (ite MW_S1_V5 S1_V5_!6445 V5_0)))))
 (let (($x4122 (or $x1286 (= V2_0 (ite MW_S1_V2 S1_V2_!6444 V2_0)))))
 (let (($x5391 (or $x5172 (= V3_0 (ite MW_S1_V3 S1_V3_!6443 V3_0)))))
 (let (($x1768 (and (or (not R_S1_V1) (= E1_!6463 (+ 1 (ite MW_S1_V1 S1_V1_!6442 E1_!6441)))) $x5391 $x4122 $x1300 $x3582)))
 (let (($x3321 (not $x1768)))
 (let (($x3877 (not (and (or (not R_S1_V1) (= E1_!6441 ?x3221)) $x1827 $x1189 $x200 $x2366))))
 (let (($x1774 (and (or (not R_S1_V1) (= E1_!6441 (+ 1 (ite MW_S1_V1 S1_V1_!6442 E1_!6441)))) $x5391 $x4122 $x1300 $x3582)))
 (let (($x2292 (not $x1774)))
 (let (($x1109 (or $x34 (= ?x33 V4_0))))
 (let (($x3897 (or $x5763 (= ?x2973 V5_0))))
 (let (($x904 (or $x1286 (= ?x2422 V2_0))))
 (let (($x5896 (or $x5172 (= ?x1403 V3_0))))
 (let (($x952 (and (or (not R_S1_V1) (= ?x334 (+ (- 1) E1_!6463))) $x5896 $x904 $x3897 $x1109)))
 (let (($x2200 (not $x952)))
 (let (($x98 (and (or (not R_S1_V1) (= ?x334 (+ (- 1) E1_!6441))) $x5896 $x904 $x3897 $x1109)))
 (let (($x851 (not $x98)))
 (let (($x2472 (= S2_V4_!6483 S2_V4_!6473)))
 (let (($x3218 (and (or (not R_S2_V1) (= ?x2959 ?x1443)) (or $x2313 (= ?x3655 ?x3207)) (or (not R_S2_V2) (= ?x1802 ?x810)) (or $x2530 (= ?x2429 ?x2785)) (or $x367 (= ?x2397 ?x1911)))))
 (let (($x321 (= E1_!6452 E1_!6463)))
 (let (($x2181 (and (or (not R_E1_V2) (= ?x671 V2_0)) (or (not R_E1_V5) (= (ite MW_S1_V5 S1_V5_!6450 V5_0) V5_0)) (or (not R_E1_V4) (= (ite MW_S1_V4 S1_V4_!6451 V4_0) V4_0)))))
 (let (($x5510 (= E1_!6441 E1_!6463)))
 (let (($x229 (and (or (not R_E1_V2) (= V2_0 ?x671)) (or (not R_E1_V5) (= V5_0 (ite MW_S1_V5 S1_V5_!6450 V5_0))) (or (not R_E1_V4) (= V4_0 (ite MW_S1_V4 S1_V4_!6451 V4_0))))))
 (let (($x2196 (= S1_V2_!6449 S1_V2_!6476)))
 (let (($x102 (and (or (not R_S1_V1) (= (ite MW_S1_V1 S1_V1_!6442 E1_!6441) ?x334)) (or $x5172 (= (ite MW_S1_V3 S1_V3_!6443 V3_0) ?x1403)) (or $x1286 (= (ite MW_S1_V2 S1_V2_!6444 V2_0) ?x2422)) (or $x5763 (= (ite MW_S1_V5 S1_V5_!6445 V5_0) ?x2973)) (or $x34 (= (ite MW_S1_V4 S1_V4_!6446 V4_0) ?x33)))))
 (let (($x2691 (not $x102)))
 (let (($x863 (or $x34 (= (ite MW_S1_V4 S1_V4_!6446 V4_0) V4_0))))
 (let (($x2700 (or $x5763 (= (ite MW_S1_V5 S1_V5_!6445 V5_0) V5_0))))
 (let (($x5789 (or $x1286 (= (ite MW_S1_V2 S1_V2_!6444 V2_0) V2_0))))
 (let (($x2343 (or $x5172 (= (ite MW_S1_V3 S1_V3_!6443 V3_0) V3_0))))
 (let (($x1200 (and (or (not R_S1_V1) (= (ite MW_S1_V1 S1_V1_!6442 E1_!6441) (+ (- 1) E1_!6463))) $x2343 $x5789 $x2700 $x863)))
 (let (($x2706 (not $x1200)))
 (let (($x2320 (and (or (not R_S1_V1) (= (ite MW_S1_V1 S1_V1_!6442 E1_!6441) (+ (- 1) E1_!6441))) $x2343 $x5789 $x2700 $x863)))
 (let (($x1652 (not $x2320)))
 (let (($x3339 (and (or (not R_S2_V1) (= E1_!6452 ?x1443)) (or $x2313 (= (ite MW_S1_V3 S1_V3_!6448 V3_0) ?x3207)) (or (not R_S2_V2) (= ?x671 ?x810)) (or $x2530 (= (ite MW_S1_V5 S1_V5_!6450 V5_0) ?x2785)) (or $x367 (= (ite MW_S1_V4 S1_V4_!6451 V4_0) ?x1911)))))
 (let (($x5870 (and (or (not (or (not R_S1_V1) $x5510)) (= S1_V1_!6442 S1_V1_!6464)) (or $x1652 (= S1_V1_!6447 S1_V1_!6442)) (or $x2706 (= S1_V1_!6447 S1_V1_!6464)) (or $x851 (= S1_V1_!6474 S1_V1_!6442)) (or $x942 (= S1_V1_!6474 S1_V1_!6447)) (or $x2200 (= S1_V1_!6474 S1_V1_!6464)) (or (not $x3339) (= S2_V5_!6456 S2_V5_!6472)) (or $x3787 (= S2_V5_!6456 S2_V5_!6482)) (or $x4925 (= S2_V5_!6461 S2_V5_!6456)) (or $x3453 (= S2_V5_!6461 S2_V5_!6472)) (or $x254 (= S2_V5_!6461 S2_V5_!6482)) (or $x6061 (= S2_V5_!6472 S2_V5_!6482)) (or (not (or (not R_S1_V1) $x5510)) (= S1_V3_!6443 S1_V3_!6465)) (or $x3877 (= S1_V3_!6443 S1_V3_!6475)) (or $x1652 (= S1_V3_!6448 S1_V3_!6443)) (or $x2706 (= S1_V3_!6448 S1_V3_!6465)) (or $x2691 (= S1_V3_!6448 S1_V3_!6475)) (or $x1304 (= S1_V3_!6465 S1_V3_!6475)) (or (not (or (not R_S1_V1) $x5510)) (= S1_V2_!6444 S1_V2_!6466)) (or $x1652 (= S1_V2_!6449 S1_V2_!6444)) (or $x2706 (= S1_V2_!6449 S1_V2_!6466)) (or $x2691 $x2196) (or $x851 (= S1_V2_!6476 S1_V2_!6444)) (or $x2200 (= S1_V2_!6476 S1_V2_!6466)) (or (not $x229) (= E1_!6441 E1_!6452)) $x5510 (or (not $x2181) $x321) (or $x4925 (= S2_V4_!6462 S2_V4_!6457)) (or $x3453 (= S2_V4_!6462 S2_V4_!6473)) (or $x254 (= S2_V4_!6462 S2_V4_!6483)) (or $x2373 (= S2_V4_!6473 S2_V4_!6457)) (or $x1003 (= S2_V4_!6483 S2_V4_!6457)) (or (not $x3218) $x2472) (or $x2292 (= S1_V5_!6445 S1_V5_!6450)) (or (not (or (not R_S1_V1) (= E1_!6463 E1_!6441))) (= S1_V5_!6467 S1_V5_!6445)) (or $x3321 (= S1_V5_!6467 S1_V5_!6450)) (or $x851 (= S1_V5_!6477 S1_V5_!6445)) (or $x942 (= S1_V5_!6477 S1_V5_!6450)) (or $x2200 (= S1_V5_!6477 S1_V5_!6467)) (or $x4925 (= S2_V1_!6458 S2_V1_!6453)) (or $x3453 (= S2_V1_!6458 S2_V1_!6469)) (or $x254 (= S2_V1_!6458 S2_V1_!6479)) (or $x2373 (= S2_V1_!6469 S2_V1_!6453)) (or $x6061 (= S2_V1_!6469 S2_V1_!6479)) (or $x1003 (= S2_V1_!6479 S2_V1_!6453)) (or $x2292 (= S1_V4_!6446 S1_V4_!6451)) (or $x3877 (= S1_V4_!6446 S1_V4_!6478)) (or (not (or (not R_S1_V1) (= E1_!6463 E1_!6441))) (= S1_V4_!6468 S1_V4_!6446)) (or $x3321 (= S1_V4_!6468 S1_V4_!6451)) (or $x1304 (= S1_V4_!6468 S1_V4_!6478)) (or $x942 (= S1_V4_!6478 S1_V4_!6451)) (or $x4925 (= S2_V2_!6460 S2_V2_!6455)) (or $x2373 (= S2_V2_!6471 S2_V2_!6455)) (or (not $x301) $x2750) (or $x6061 (= S2_V2_!6471 S2_V2_!6481)) (or $x1003 $x4661) (or (not $x1438) $x4058) (or $x3787 $x807) (or $x4925 $x5742) (or $x3453 $x3640) (or $x254 $x3359) (or $x2373 $x3646) (or $x6061 $x722) (not MW_S1_V1) (not MW_S1_V2) (or (not MW_S1_V5) W_S1_V5) (or (not MW_S1_V4) W_S1_V4) (or (not MW_S2_V1) W_S2_V1) (or (not MW_S2_V3) W_S2_V3) (or (not MW_S2_V2) W_S2_V2) (or (not MW_S2_V5) W_S2_V5))))
 (or (not $x5870) (not $x2589) (and (= ?x5414 ?x1491) $x168 (= ?x2444 ?x1298) $x2303 $x4693)))))))))))))))))))))))))))))))))))))))))))))))))))))))))))))))))))))))))))))))))))))))))))))))))))))))))))))
 )
 )
 )
 )
 )
 )
 )
 )
 )
 )
 )
 )
 )
 )
 )
 )
 )
 )
 )
 )
 )
 )
 )
 )
 )
 )
 )
 )
 )
 )
 )
 )
 )
 )
 )
 )
 )
 )
 )
 )
 )
 )
 )
 )
 )
 )
 )
 )
 )
 )
 )
 )
 )
 )
 )
 )
 ))
 (let (($x5957 (or (and W_S2_V2 R_E1_V2) (and W_S2_V5 R_E1_V5) R_E1_V4)))
 (let (($x763 (= DISJ_W_S2_R_E1 (not $x5957))))
 (let (($x4563 (and W_S2_V5 R_S2_V5)))
 (let (($x363 (and W_S2_V2 R_S2_V2)))
 (let (($x3367 (and W_S2_V3 R_S2_V3)))
 (let (($x3637 (and W_S2_V1 R_S2_V1)))
 (let (($x114 (= DISJ_W_S2_R_S2 (not (or $x3637 $x3367 $x363 $x4563 R_S2_V4)))))
 (let (($x896 (and W_S2_V5 R_S1_V5)))
 (let (($x2063 (and W_S2_V2 R_S1_V2)))
 (let (($x3856 (and W_S2_V3 R_S1_V3)))
 (let (($x5208 (and W_S2_V1 R_S1_V1)))
 (let (($x1090 (= DISJ_W_S2_R_S1 (not (or $x5208 $x3856 $x2063 $x896 R_S1_V4)))))
 (let (($x448 (= DISJ_W_S1_W_S2 (not (or W_S2_V3 (and W_S1_V5 W_S2_V5) W_S1_V4)))))
 (let (($x1221 (not R_E1_V3)))
 (let (($x3759 (not (or R_S2_V3 (and W_S1_V5 R_S2_V5) (and W_S1_V4 R_S2_V4)))))
 (let (($x1944 (= DISJ_W_S1_R_S2 $x3759)))
 (let (($x2951 (not (or R_S1_V3 (and W_S1_V5 R_S1_V5) (and W_S1_V4 R_S1_V4)))))
 (let (($x2191 (= DISJ_W_S1_R_S1 $x2951)))
 (let (($x5815 (not W_S2_V2)))
 (let (($x1302 (not R_S2_V1)))
 (let (($x5833 (and $x1302 $x367 $x5815 $x3516 DISJ_W_S2_R_S1)))
 (let (($x2530 (not R_S2_V5)))
 (let (($x185 (and $x2530 $x367 $x3516 DISJ_W_S2_R_S1)))
 (let (($x594 (and $x367 $x2264 $x3516 DISJ_W_S2_R_S1)))
 (let (($x780 (and $x1302 $x2530 $x5815 $x3516 DISJ_W_S2_R_S1)))
 (let (($x2001 (and $x2530 $x5370 $x3516 DISJ_W_S2_R_S1)))
 (let (($x1275 (and $x1302 $x5815 $x4945 $x3516 DISJ_W_S2_R_S1)))
 (let (($x3020 (and DISJ_W_S1_W_S2 DISJ_W_S2_R_S1)))
 (let (($x629 (and $x1302 $x2313 $x2530 $x5815 DISJ_W_S2_R_S1)))
 (let (($x226 (and $x1302 $x2313 $x367 $x5815 DISJ_W_S2_R_S1)))
 (let (($x2986 (and $x1302 $x367 $x5815 $x4945 DISJ_W_S2_R_S1)))
 (let (($x1076 (and $x1302 $x2530 $x367 $x5815 DISJ_W_S2_R_S1)))
 (let (($x488 (and $x1302 $x2313 $x5815 $x4945 DISJ_W_S2_R_S1)))
 (let (($x3149 (and (not W_S2_V1) $x5815)))
 (let (($x1953 (and $x2313 $x5370 $x4945 DISJ_W_S2_R_S1)))
 (let (($x6078 (and $x5815 DISJ_W_S2_R_S2)))
 (let (($x2008 (or $x5874 $x6078 $x2104 $x1953 $x3179 $x338 $x3149 $x488 $x1076 $x2986 $x226 $x629 $x3020 $x1275 $x2001 $x780 $x594 $x185 $x5833)))
 (let (($x1803 (and $x1786 DISJ_W_S1_R_S1)))
 (let (($x6079 (and $x5815 DISJ_W_S2_R_S1 DISJ_W_S1_R_S1)))
 (let (($x1215 (or $x6079 $x3149 $x1803)))
 (let (($x2029 (not W_S1_V2)))
 (let (($x462 (not W_S1_V1)))
 (let (($x699 (not R_E1_V1)))
 (let (($x2362 (and DISJ_W_S1_R_E1 $x699 $x462 $x2029 $x1215 $x2008 W_S1_V3 W_S2_V4 $x2191 $x1944 $x1221 $x448 $x1090 $x114 $x763 $x5735 $x3234 $x1041)))
 (and $x2362 $x3448 $x5088 $x2591 $x2454 $x1113 $x4662 $x2989 $x4337))))))))))))))))))))))))))))))))))))))))))))))))))))))))))))))))))))))
(check-sat)
